Input: tic-13crafc.original.dzn
============================================================
Total Runtime: 4.4044 seconds
Input parsing: 0.0009 seconds
Constraint building: 0.1399 seconds
MaxSAT solving: 4.1474 seconds
============================================================

Total variables: 43487
Total clauses: 113250
MaxSAT found with cost: 4
SCHEDULE:
Meeting 1 → Time slot 5
Meeting 2 → Time slot 1
Meeting 3 → Time slot 2
Meeting 4 → Time slot 8
Meeting 5 → Time slot 3
Meeting 6 → Time slot 4
Meeting 7 → Time slot 9
Meeting 8 → Time slot 7
Meeting 9 → Time slot 6
Meeting 10 → Time slot 10
Meeting 11 → Time slot 1
Meeting 12 → Time slot 2
Meeting 13 → Time slot 10
Meeting 14 → Time slot 9
Meeting 15 → Time slot 3
Meeting 16 → Time slot 8
Meeting 17 → Time slot 2
Meeting 18 → Time slot 7
Meeting 19 → Time slot 4
Meeting 20 → Time slot 6
Meeting 21 → Time slot 3
Meeting 22 → Time slot 5
Meeting 23 → Time slot 7
Meeting 24 → Time slot 4
Meeting 25 → Time slot 9
Meeting 26 → Time slot 6
Meeting 27 → Time slot 5
Meeting 28 → Time slot 8
Meeting 29 → Time slot 10
Meeting 30 → Time slot 7
Meeting 31 → Time slot 3
Meeting 32 → Time slot 1
Meeting 33 → Time slot 2
Meeting 34 → Time slot 4
Meeting 35 → Time slot 8
Meeting 36 → Time slot 5
Meeting 37 → Time slot 6
Meeting 38 → Time slot 9
Meeting 39 → Time slot 6
Meeting 40 → Time slot 10
Meeting 41 → Time slot 7
Meeting 42 → Time slot 2
Meeting 43 → Time slot 1
Meeting 44 → Time slot 6
Meeting 45 → Time slot 3
Meeting 46 → Time slot 4
Meeting 47 → Time slot 7
Meeting 48 → Time slot 5
Meeting 49 → Time slot 8
Meeting 50 → Time slot 7
Meeting 51 → Time slot 8
Meeting 52 → Time slot 6
Meeting 53 → Time slot 9
Meeting 54 → Time slot 10
Meeting 55 → Time slot 6
Meeting 56 → Time slot 10
Meeting 57 → Time slot 9
Meeting 58 → Time slot 8
Meeting 59 → Time slot 4
Meeting 60 → Time slot 3
Meeting 61 → Time slot 5
Meeting 62 → Time slot 4
Meeting 63 → Time slot 7
Meeting 64 → Time slot 8
Meeting 65 → Time slot 1
Meeting 66 → Time slot 10
Meeting 67 → Time slot 1
Meeting 68 → Time slot 3
Meeting 69 → Time slot 2
Meeting 70 → Time slot 9
Meeting 71 → Time slot 1
Meeting 72 → Time slot 5
Meeting 73 → Time slot 2
Meeting 74 → Time slot 9
Meeting 75 → Time slot 3
Meeting 76 → Time slot 7
Meeting 77 → Time slot 6
Meeting 78 → Time slot 10
Meeting 79 → Time slot 8
Meeting 80 → Time slot 3
Meeting 81 → Time slot 1
Meeting 82 → Time slot 2
Meeting 83 → Time slot 8
Meeting 84 → Time slot 4
Meeting 85 → Time slot 5
Meeting 86 → Time slot 10
Meeting 87 → Time slot 4
Meeting 88 → Time slot 5
Meeting 89 → Time slot 2
Meeting 90 → Time slot 6
Meeting 91 → Time slot 10
Meeting 92 → Time slot 8
Meeting 93 → Time slot 3
Meeting 94 → Time slot 9
Meeting 95 → Time slot 4
Meeting 96 → Time slot 7
Meeting 97 → Time slot 9
Meeting 98 → Time slot 10
Meeting 99 → Time slot 3
Meeting 100 → Time slot 5
Meeting 101 → Time slot 8
Meeting 102 → Time slot 6
Meeting 103 → Time slot 10
Meeting 104 → Time slot 2
Meeting 105 → Time slot 4
Meeting 106 → Time slot 6
Meeting 107 → Time slot 5
Meeting 108 → Time slot 8
Meeting 109 → Time slot 9
Meeting 110 → Time slot 3
Meeting 111 → Time slot 1
Meeting 112 → Time slot 5
Meeting 113 → Time slot 7
Meeting 114 → Time slot 2
Meeting 115 → Time slot 4
Meeting 116 → Time slot 2
Meeting 117 → Time slot 1
Meeting 118 → Time slot 9
Meeting 119 → Time slot 5
Meeting 120 → Time slot 9
Meeting 121 → Time slot 7
Meeting 122 → Time slot 8
Meeting 123 → Time slot 5
Meeting 124 → Time slot 9
Meeting 125 → Time slot 8
Meeting 126 → Time slot 6
Meeting 127 → Time slot 4
Meeting 128 → Time slot 7
Meeting 129 → Time slot 2
Meeting 130 → Time slot 3
Meeting 131 → Time slot 10
Meeting 132 → Time slot 8
Meeting 133 → Time slot 7
Meeting 134 → Time slot 4
Meeting 135 → Time slot 3
Meeting 136 → Time slot 2
Meeting 137 → Time slot 5
Meeting 138 → Time slot 4
Meeting 139 → Time slot 2
Meeting 140 → Time slot 6
Meeting 141 → Time slot 3
Meeting 142 → Time slot 7
Meeting 143 → Time slot 4
Meeting 144 → Time slot 2
Meeting 145 → Time slot 8
Meeting 146 → Time slot 7
Meeting 147 → Time slot 8
Meeting 148 → Time slot 3
Meeting 149 → Time slot 6
Meeting 150 → Time slot 4
Meeting 151 → Time slot 5
Meeting 152 → Time slot 6
Meeting 153 → Time slot 3
Meeting 154 → Time slot 9
Meeting 155 → Time slot 5
Meeting 156 → Time slot 6
Meeting 157 → Time slot 7
Meeting 158 → Time slot 6
Meeting 159 → Time slot 4
Meeting 160 → Time slot 1
Meeting 161 → Time slot 2
Meeting 162 → Time slot 5
Meeting 163 → Time slot 5
Meeting 164 → Time slot 3
Meeting 165 → Time slot 10
Meeting 166 → Time slot 1
Meeting 167 → Time slot 4
Meeting 168 → Time slot 6
Meeting 169 → Time slot 7
Meeting 170 → Time slot 1
Meeting 171 → Time slot 2
Meeting 172 → Time slot 1
Meeting 173 → Time slot 9
Meeting 174 → Time slot 7
Meeting 175 → Time slot 8
Meeting 176 → Time slot 3
Meeting 177 → Time slot 9
Meeting 178 → Time slot 1
Meeting 179 → Time slot 9
Meeting 180 → Time slot 10
Checking hard constraints...
All hard constraints are satisfied
